problem_generation/data/GISP/train/er_n=64_m=1206_p=0.60_SET2_setparam=100.00_alpha=0.50_412.lp
maximize
OBJ:100x0 + 100x1 + 100x2 + 100x3 + 100x4 + 100x5 + 100x6 + 100x7 + 100x8 + 100x9 + 100x10 + 100x11 + 100x12 + 100x13 + 100x14 + 100x15 + 100x16 + 100x17 + 100x18 + 100x19 + 100x20 + 100x21 + 100x22 + 100x23 + 100x24 + 100x25 + 100x26 + 100x27 + 100x28 + 100x29 + 100x30 + 100x31 + 100x32 + 100x33 + 100x34 + 100x35 + 100x36 + 100x37 + 100x38 + 100x39 + 100x40 + 100x41 + 100x42 + 100x43 + 100x44 + 100x45 + 100x46 + 100x47 + 100x48 + 100x49 + 100x50 + 100x51 + 100x52 + 100x53 + 100x54 + 100x55 + 100x56 + 100x57 + 100x58 + 100x59 + 100x60 + 100x61 + 100x62 + 100x63 - y47_53 - y26_30 - y15_39 - y18_35 - y0_5 - y29_41 - y48_54 - y6_48 - y29_50 - y40_50 - y21_46 - y40_59 - y10_27 - y41_42 - y33_38 - y2_32 - y33_47 - y44_47 - y25_43 - y10_54 - y3_24 - y43_60 - y22_37 - y14_42 - y28_53 - y7_30 - y9_58 - y0_9 - y29_54 - y21_50 - y10_22 - y44_51 - y51_59 - y3_19 - y24_60 - y36_43 - y47_61 - y9_44 - y59_63 - y28_57 - y6_29 - y9_62 - y21_27 - y48_53 - y29_49 - y40_49 - y6_56 - y40_58 - y2_13 - y39_62 - y2_22 - y33_37 - y25_33 - y2_40 - y22_27 - y24_46 - y43_59 - y13_55 - y35_55 - y17_34 - y9_30 - y55_60 - y28_43 - y36_56 - y17_52 - y5_59 - y9_57 - y50_58 - y21_31 - y6_51 - y2_8 - y31_53 - y31_62 - y10_39 - y23_58 - y2_35 - y32_36 - y13_32 - y51_58 - y13_41 - y24_41 - y35_41 - y1_48 - y32_63 - y16_46 - y43_63 - y1_57 - y35_59 - y36_51 - y17_47 - y6_10 - y9_43 - y28_56 - y29_30 - y50_62 - y42_58 - y6_46 - y20_39 - y39_52 - y39_61 - y12_44 - y12_53 - y12_62 - y13_27 - y3_4 - y13_36 - y13_45 - y24_45 - y24_63 - y35_63 - y46_60 - y57_60 - y36_37 - y17_33 - y9_29 - y28_42 - y27_55 - y8_51 - y42_53 - y19_60 - y10_11 - y39_47 - y2_16 - y20_61 - y1_29 - y43_44 - y43_53 - y1_56 - y16_54 - y5_17 - y9_15 - y5_26 - y9_33 - y5_44 - y7_63 - y50_61 - y19_55 - y20_29 - y39_42 - y2_11 - y20_47 - y23_43 - y31_56 - y23_52 - y1_15 - y13_26 - y32_39 - y34_58 - y37_63 - y5_12 - y57_59 - y15_53 - y38_55 - y5_39 - y8_32 - y27_45 - y19_41 - y0_37 - y11_37 - y19_50 - y30_50 - y27_63 - y42_61 - y0_55 - y12_20 - y31_33 - y12_38 - y4_43 - y23_56 - y34_53 - y45_53 - y1_28 - y24_30 - y4_61 - y16_26 - y37_58 - y38_41 - y9_14 - y46_63 - y26_57 - y49_59 - y7_53 - y18_53 - y7_62 - y19_36 - y27_58 - y8_54 - y12_15 - y19_63 - y20_28 - y4_11 - y11_59 - y4_29 - y12_42 - y23_42 - y1_23 - y24_25 - y16_21 - y22_55 - y34_57 - y3_51 - y16_30 - y14_60 - y15_34 - y46_49 - y15_43 - y38_45 - y57_58 - y26_61 - y49_63 - y18_57 - y30_31 - y27_44 - y0_27 - y8_40 - y8_49 - y19_49 - y30_49 - y11_45 - y0_54 - y23_28 - y33_60 - y25_56 - y1_18 - y3_46 - y14_46 - y37_48 - y3_55 - y15_20 - y26_38 - y38_40 - y7_34 - y15_47 - y38_49 - y18_43 - y15_56 - y18_52 - y8_17 - y11_13 - y18_61 - y48_62 - y0_31 - y11_31 - y8_44 - y30_44 - y12_14 - y41_50 - y12_23 - y4_19 - y25_51 - y4_28 - y22_36 - y34_38 - y22_45 - y37_43 - y3_50 - y14_50 - y3_59 - y15_33 - y26_33 - y18_29 - y18_38 - y15_51 - y8_12 - y7_56 - y29_53 - y6_60 - y11_35 - y4_5 - y44_50 - y52_63 - y10_57 - y2_53 - y3_27 - y34_42 - y14_36 - y22_49 - y3_45 - y14_63 - y15_28 - y7_24 - y36_60 - y47_60 - y59_62 - y26_46 - y18_42 - y29_48 - y40_48 - y0_21 - y29_57 - y40_57 - y21_62 - y10_34 - y4_9 - y10_43 - y41_58 - y2_39 - y44_45 - y2_48 - y22_26 - y25_59 - y22_35 - y3_31 - y22_44 - y7_10 - y36_46 - y7_19 - y17_51 - y7_37 - y18_37 - y0_7 - y48_56 - y33_40 - y2_34 - y25_36 - y33_49 - y44_49 - y25_45 - y51_57 - y25_54 - y14_17 - y32_53 - y2_61 - y3_26 - y24_58 - y15_18 - y7_14 - y17_46 - y28_46 - y47_59 - y9_42 - y59_61 - y6_27 - y21_25 - y48_51 - y21_34 - y40_47 - y10_15 - y2_20 - y54_58 - y33_35 - y25_31 - y25_40 - y2_47 - y51_61 - y14_21 - y32_57 - y13_53 - y24_53 - y14_30 - y35_53 - y1_60 - y36_45 - y5_48 - y17_59 - y6_31 - y21_29 - y2_6 - y10_28 - y2_24 - y31_60 - y25_35 - y3_7 - y14_16 - y32_52 - y16_44 - y1_55 - y13_57 - y17_18 - y9_23 - y9_32 - y36_58 - y9_41 - y47_58 - y28_63 - y6_26 - y50_60 - y39_50 - y20_46 - y2_19 - y51_60 - y1_41 - y35_43 - y32_56 - y16_39 - y1_50 - y24_52 - y5_20 - y9_18 - y5_29 - y28_40 - y5_47 - y50_55 - y6_30 - y21_28 - y2_5 - y31_41 - y2_14 - y12_46 - y2_23 - y20_59 - y54_61 - y12_55 - y32_33 - y1_27 - y13_29 - y4_60 - y32_42 - y13_38 - y24_38 - y16_34 - y35_47 - y16_43 - y1_54 - y9_13 - y17_26 - y36_39 - y38_58 - y49_58 - y17_35 - y28_35 - y21_23 - y27_57 - y19_53 - y30_53 - y42_55 - y39_49 - y12_32 - y2_18 - y54_56 - y31_63 - y32_37 - y43_46 - y13_42 - y24_51 - y5_28 - y17_30 - y9_26 - y15_60 - y27_43 - y8_39 - y50_54 - y8_48 - y42_50 - y0_44 - y30_57 - y0_62 - y11_62 - y12_27 - y31_40 - y4_23 - y39_53 - y23_36 - y1_17 - y13_19 - y4_50 - y53_55 - y23_63 - y1_26 - y1_35 - y13_37 - y24_37 - y16_33 - y1_44 - y27_29 - y8_25 - y27_38 - y11_39 - y19_52 - y11_48 - y60_62 - y0_57 - y4_18 - y20_44 - y4_27 - y45_46 - y16_19 - y1_39 - y14_58 - y37_60 - y38_43 - y26_50 - y7_46 - y18_46 - y15_59 - y7_55 - y18_55 - y19_20 - y27_33 - y8_29 - y8_38 - y11_34 - y8_47 - y19_47 - y20_21 - y0_52 - y41_53 - y52_53 - y0_61 - y12_26 - y41_62 - y52_62 - y1_7 - y1_16 - y45_50 - y37_46 - y34_59 - y14_53 - y18_32 - y15_45 - y18_50 - y27_28 - y0_11 - y48_60 - y0_29 - y11_29 - y0_38 - y41_48 - y20_25 - y41_57 - y4_17 - y10_60 - y33_62 - y1_2 - y4_35 - y22_43 - y34_45 - y3_39 - y22_52 - y45_54 - y3_48 - y37_50 - y22_61 - y34_63 - y45_63 - y26_31 - y7_27 - y18_27 - y7_36 - y7_45 - y0_6 - y27_32 - y0_15 - y18_63 - y0_24 - y40_60 - y11_42 - y41_52 - y33_48 - y33_57 - y44_57 - y22_38 - y22_47 - y34_49 - y37_45 - y22_56 - y56_58 - y37_54 - y7_13 - y14_61 - y59_60 - y7_31 - y7_49 - y29_46 - y40_46 - y8_23 - y19_23 - y48_59 - y6_53 - y29_55 - y30_32 - y6_62 - y33_43 - y10_50 - y33_52 - y22_24 - y2_55 - y3_20 - y14_29 - y22_42 - y3_38 - y37_40 - y22_51 - y3_47 - y3_56
 Subject to
C1: x0+x1 <=1 
C2: x0+x3 <=1 
C3: x0+x5-y0_5 <=1 
C4: x0+x6-y0_6 <=1 
C5: x0+x7-y0_7 <=1 
C6: x0+x8 <=1 
C7: x0+x9-y0_9 <=1 
C8: x0+x11-y0_11 <=1 
C9: x0+x13 <=1 
C10: x0+x15-y0_15 <=1 
C11: x0+x17 <=1 
C12: x0+x19 <=1 
C13: x0+x21-y0_21 <=1 
C14: x0+x24-y0_24 <=1 
C15: x0+x27-y0_27 <=1 
C16: x0+x28 <=1 
C17: x0+x29-y0_29 <=1 
C18: x0+x30 <=1 
C19: x0+x31-y0_31 <=1 
C20: x0+x32 <=1 
C21: x0+x37-y0_37 <=1 
C22: x0+x38-y0_38 <=1 
C23: x0+x39 <=1 
C24: x0+x42 <=1 
C25: x0+x43 <=1 
C26: x0+x44-y0_44 <=1 
C27: x0+x45 <=1 
C28: x0+x46 <=1 
C29: x0+x49 <=1 
C30: x0+x50 <=1 
C31: x0+x51 <=1 
C32: x0+x52-y0_52 <=1 
C33: x0+x53 <=1 
C34: x0+x54-y0_54 <=1 
C35: x0+x55-y0_55 <=1 
C36: x0+x56 <=1 
C37: x0+x57-y0_57 <=1 
C38: x0+x60 <=1 
C39: x0+x61-y0_61 <=1 
C40: x0+x62-y0_62 <=1 
C41: x0+x63 <=1 
C42: x1+x2-y1_2 <=1 
C43: x1+x4 <=1 
C44: x1+x5 <=1 
C45: x1+x7-y1_7 <=1 
C46: x1+x8 <=1 
C47: x1+x10 <=1 
C48: x1+x12 <=1 
C49: x1+x13 <=1 
C50: x1+x14 <=1 
C51: x1+x15-y1_15 <=1 
C52: x1+x16-y1_16 <=1 
C53: x1+x17-y1_17 <=1 
C54: x1+x18-y1_18 <=1 
C55: x1+x19 <=1 
C56: x1+x21 <=1 
C57: x1+x23-y1_23 <=1 
C58: x1+x24 <=1 
C59: x1+x25 <=1 
C60: x1+x26-y1_26 <=1 
C61: x1+x27-y1_27 <=1 
C62: x1+x28-y1_28 <=1 
C63: x1+x29-y1_29 <=1 
C64: x1+x30 <=1 
C65: x1+x34 <=1 
C66: x1+x35-y1_35 <=1 
C67: x1+x39-y1_39 <=1 
C68: x1+x40 <=1 
C69: x1+x41-y1_41 <=1 
C70: x1+x42 <=1 
C71: x1+x44-y1_44 <=1 
C72: x1+x45 <=1 
C73: x1+x48-y1_48 <=1 
C74: x1+x50-y1_50 <=1 
C75: x1+x51 <=1 
C76: x1+x54-y1_54 <=1 
C77: x1+x55-y1_55 <=1 
C78: x1+x56-y1_56 <=1 
C79: x1+x57-y1_57 <=1 
C80: x1+x59 <=1 
C81: x1+x60-y1_60 <=1 
C82: x1+x61 <=1 
C83: x1+x62 <=1 
C84: x2+x3 <=1 
C85: x2+x5-y2_5 <=1 
C86: x2+x6-y2_6 <=1 
C87: x2+x8-y2_8 <=1 
C88: x2+x9 <=1 
C89: x2+x10 <=1 
C90: x2+x11-y2_11 <=1 
C91: x2+x12 <=1 
C92: x2+x13-y2_13 <=1 
C93: x2+x14-y2_14 <=1 
C94: x2+x15 <=1 
C95: x2+x16-y2_16 <=1 
C96: x2+x18-y2_18 <=1 
C97: x2+x19-y2_19 <=1 
C98: x2+x20-y2_20 <=1 
C99: x2+x22-y2_22 <=1 
C100: x2+x23-y2_23 <=1 
C101: x2+x24-y2_24 <=1 
C102: x2+x27 <=1 
C103: x2+x30 <=1 
C104: x2+x32-y2_32 <=1 
C105: x2+x34-y2_34 <=1 
C106: x2+x35-y2_35 <=1 
C107: x2+x39-y2_39 <=1 
C108: x2+x40-y2_40 <=1 
C109: x2+x42 <=1 
C110: x2+x44 <=1 
C111: x2+x45 <=1 
C112: x2+x47-y2_47 <=1 
C113: x2+x48-y2_48 <=1 
C114: x2+x53-y2_53 <=1 
C115: x2+x55-y2_55 <=1 
C116: x2+x57 <=1 
C117: x2+x61-y2_61 <=1 
C118: x2+x63 <=1 
C119: x3+x4-y3_4 <=1 
C120: x3+x7-y3_7 <=1 
C121: x3+x8 <=1 
C122: x3+x10 <=1 
C123: x3+x11 <=1 
C124: x3+x12 <=1 
C125: x3+x13 <=1 
C126: x3+x15 <=1 
C127: x3+x19-y3_19 <=1 
C128: x3+x20-y3_20 <=1 
C129: x3+x21 <=1 
C130: x3+x22 <=1 
C131: x3+x23 <=1 
C132: x3+x24-y3_24 <=1 
C133: x3+x26-y3_26 <=1 
C134: x3+x27-y3_27 <=1 
C135: x3+x28 <=1 
C136: x3+x29 <=1 
C137: x3+x31-y3_31 <=1 
C138: x3+x32 <=1 
C139: x3+x33 <=1 
C140: x3+x34 <=1 
C141: x3+x35 <=1 
C142: x3+x36 <=1 
C143: x3+x38-y3_38 <=1 
C144: x3+x39-y3_39 <=1 
C145: x3+x42 <=1 
C146: x3+x44 <=1 
C147: x3+x45-y3_45 <=1 
C148: x3+x46-y3_46 <=1 
C149: x3+x47-y3_47 <=1 
C150: x3+x48-y3_48 <=1 
C151: x3+x49 <=1 
C152: x3+x50-y3_50 <=1 
C153: x3+x51-y3_51 <=1 
C154: x3+x52 <=1 
C155: x3+x55-y3_55 <=1 
C156: x3+x56-y3_56 <=1 
C157: x3+x57 <=1 
C158: x3+x59-y3_59 <=1 
C159: x3+x60 <=1 
C160: x4+x5-y4_5 <=1 
C161: x4+x6 <=1 
C162: x4+x7 <=1 
C163: x4+x9-y4_9 <=1 
C164: x4+x10 <=1 
C165: x4+x11-y4_11 <=1 
C166: x4+x15 <=1 
C167: x4+x17-y4_17 <=1 
C168: x4+x18-y4_18 <=1 
C169: x4+x19-y4_19 <=1 
C170: x4+x20 <=1 
C171: x4+x21 <=1 
C172: x4+x22 <=1 
C173: x4+x23-y4_23 <=1 
C174: x4+x24 <=1 
C175: x4+x27-y4_27 <=1 
C176: x4+x28-y4_28 <=1 
C177: x4+x29-y4_29 <=1 
C178: x4+x31 <=1 
C179: x4+x33 <=1 
C180: x4+x35-y4_35 <=1 
C181: x4+x37 <=1 
C182: x4+x42 <=1 
C183: x4+x43-y4_43 <=1 
C184: x4+x44 <=1 
C185: x4+x46 <=1 
C186: x4+x48 <=1 
C187: x4+x49 <=1 
C188: x4+x50-y4_50 <=1 
C189: x4+x52 <=1 
C190: x4+x58 <=1 
C191: x4+x60-y4_60 <=1 
C192: x4+x61-y4_61 <=1 
C193: x4+x63 <=1 
C194: x5+x10 <=1 
C195: x5+x12-y5_12 <=1 
C196: x5+x15 <=1 
C197: x5+x17-y5_17 <=1 
C198: x5+x18 <=1 
C199: x5+x20-y5_20 <=1 
C200: x5+x21 <=1 
C201: x5+x26-y5_26 <=1 
C202: x5+x28-y5_28 <=1 
C203: x5+x29-y5_29 <=1 
C204: x5+x30 <=1 
C205: x5+x39-y5_39 <=1 
C206: x5+x40 <=1 
C207: x5+x42 <=1 
C208: x5+x44-y5_44 <=1 
C209: x5+x45 <=1 
C210: x5+x46 <=1 
C211: x5+x47-y5_47 <=1 
C212: x5+x48-y5_48 <=1 
C213: x5+x50 <=1 
C214: x5+x52 <=1 
C215: x5+x53 <=1 
C216: x5+x58 <=1 
C217: x5+x59-y5_59 <=1 
C218: x6+x10-y6_10 <=1 
C219: x6+x11 <=1 
C220: x6+x12 <=1 
C221: x6+x16 <=1 
C222: x6+x17 <=1 
C223: x6+x18 <=1 
C224: x6+x20 <=1 
C225: x6+x21 <=1 
C226: x6+x24 <=1 
C227: x6+x26-y6_26 <=1 
C228: x6+x27-y6_27 <=1 
C229: x6+x29-y6_29 <=1 
C230: x6+x30-y6_30 <=1 
C231: x6+x31-y6_31 <=1 
C232: x6+x39 <=1 
C233: x6+x40 <=1 
C234: x6+x43 <=1 
C235: x6+x44 <=1 
C236: x6+x45 <=1 
C237: x6+x46-y6_46 <=1 
C238: x6+x48-y6_48 <=1 
C239: x6+x51-y6_51 <=1 
C240: x6+x53-y6_53 <=1 
C241: x6+x56-y6_56 <=1 
C242: x6+x57 <=1 
C243: x6+x58 <=1 
C244: x6+x59 <=1 
C245: x6+x60-y6_60 <=1 
C246: x6+x62-y6_62 <=1 
C247: x6+x63 <=1 
C248: x7+x10-y7_10 <=1 
C249: x7+x11 <=1 
C250: x7+x13-y7_13 <=1 
C251: x7+x14-y7_14 <=1 
C252: x7+x16 <=1 
C253: x7+x19-y7_19 <=1 
C254: x7+x20 <=1 
C255: x7+x22 <=1 
C256: x7+x24-y7_24 <=1 
C257: x7+x26 <=1 
C258: x7+x27-y7_27 <=1 
C259: x7+x28 <=1 
C260: x7+x29 <=1 
C261: x7+x30-y7_30 <=1 
C262: x7+x31-y7_31 <=1 
C263: x7+x34-y7_34 <=1 
C264: x7+x36-y7_36 <=1 
C265: x7+x37-y7_37 <=1 
C266: x7+x39 <=1 
C267: x7+x42 <=1 
C268: x7+x44 <=1 
C269: x7+x45-y7_45 <=1 
C270: x7+x46-y7_46 <=1 
C271: x7+x47 <=1 
C272: x7+x48 <=1 
C273: x7+x49-y7_49 <=1 
C274: x7+x52 <=1 
C275: x7+x53-y7_53 <=1 
C276: x7+x55-y7_55 <=1 
C277: x7+x56-y7_56 <=1 
C278: x7+x59 <=1 
C279: x7+x61 <=1 
C280: x7+x62-y7_62 <=1 
C281: x7+x63-y7_63 <=1 
C282: x8+x9 <=1 
C283: x8+x10 <=1 
C284: x8+x11 <=1 
C285: x8+x12-y8_12 <=1 
C286: x8+x17-y8_17 <=1 
C287: x8+x21 <=1 
C288: x8+x23-y8_23 <=1 
C289: x8+x25-y8_25 <=1 
C290: x8+x28 <=1 
C291: x8+x29-y8_29 <=1 
C292: x8+x32-y8_32 <=1 
C293: x8+x33 <=1 
C294: x8+x38-y8_38 <=1 
C295: x8+x39-y8_39 <=1 
C296: x8+x40-y8_40 <=1 
C297: x8+x44-y8_44 <=1 
C298: x8+x45 <=1 
C299: x8+x46 <=1 
C300: x8+x47-y8_47 <=1 
C301: x8+x48-y8_48 <=1 
C302: x8+x49-y8_49 <=1 
C303: x8+x51-y8_51 <=1 
C304: x8+x52 <=1 
C305: x8+x54-y8_54 <=1 
C306: x8+x56 <=1 
C307: x8+x57 <=1 
C308: x8+x58 <=1 
C309: x8+x59 <=1 
C310: x8+x61 <=1 
C311: x8+x63 <=1 
C312: x9+x10 <=1 
C313: x9+x12 <=1 
C314: x9+x13-y9_13 <=1 
C315: x9+x14-y9_14 <=1 
C316: x9+x15-y9_15 <=1 
C317: x9+x16 <=1 
C318: x9+x18-y9_18 <=1 
C319: x9+x21 <=1 
C320: x9+x23-y9_23 <=1 
C321: x9+x24 <=1 
C322: x9+x26-y9_26 <=1 
C323: x9+x28 <=1 
C324: x9+x29-y9_29 <=1 
C325: x9+x30-y9_30 <=1 
C326: x9+x31 <=1 
C327: x9+x32-y9_32 <=1 
C328: x9+x33-y9_33 <=1 
C329: x9+x35 <=1 
C330: x9+x40 <=1 
C331: x9+x41-y9_41 <=1 
C332: x9+x42-y9_42 <=1 
C333: x9+x43-y9_43 <=1 
C334: x9+x44-y9_44 <=1 
C335: x9+x45 <=1 
C336: x9+x46 <=1 
C337: x9+x48 <=1 
C338: x9+x49 <=1 
C339: x9+x50 <=1 
C340: x9+x55 <=1 
C341: x9+x57-y9_57 <=1 
C342: x9+x58-y9_58 <=1 
C343: x9+x59 <=1 
C344: x9+x60 <=1 
C345: x9+x61 <=1 
C346: x9+x62-y9_62 <=1 
C347: x9+x63 <=1 
C348: x10+x11-y10_11 <=1 
C349: x10+x13 <=1 
C350: x10+x14 <=1 
C351: x10+x15-y10_15 <=1 
C352: x10+x19 <=1 
C353: x10+x22-y10_22 <=1 
C354: x10+x25 <=1 
C355: x10+x27-y10_27 <=1 
C356: x10+x28-y10_28 <=1 
C357: x10+x29 <=1 
C358: x10+x30 <=1 
C359: x10+x31 <=1 
C360: x10+x32 <=1 
C361: x10+x34-y10_34 <=1 
C362: x10+x39-y10_39 <=1 
C363: x10+x42 <=1 
C364: x10+x43-y10_43 <=1 
C365: x10+x44 <=1 
C366: x10+x45 <=1 
C367: x10+x46 <=1 
C368: x10+x47 <=1 
C369: x10+x50-y10_50 <=1 
C370: x10+x52 <=1 
C371: x10+x53 <=1 
C372: x10+x54-y10_54 <=1 
C373: x10+x55 <=1 
C374: x10+x57-y10_57 <=1 
C375: x10+x59 <=1 
C376: x10+x60-y10_60 <=1 
C377: x10+x61 <=1 
C378: x11+x13-y11_13 <=1 
C379: x11+x14 <=1 
C380: x11+x17 <=1 
C381: x11+x18 <=1 
C382: x11+x20 <=1 
C383: x11+x22 <=1 
C384: x11+x25 <=1 
C385: x11+x29-y11_29 <=1 
C386: x11+x31-y11_31 <=1 
C387: x11+x34-y11_34 <=1 
C388: x11+x35-y11_35 <=1 
C389: x11+x36 <=1 
C390: x11+x37-y11_37 <=1 
C391: x11+x38 <=1 
C392: x11+x39-y11_39 <=1 
C393: x11+x40 <=1 
C394: x11+x42-y11_42 <=1 
C395: x11+x44 <=1 
C396: x11+x45-y11_45 <=1 
C397: x11+x48-y11_48 <=1 
C398: x11+x53 <=1 
C399: x11+x54 <=1 
C400: x11+x55 <=1 
C401: x11+x56 <=1 
C402: x11+x59-y11_59 <=1 
C403: x11+x61 <=1 
C404: x11+x62-y11_62 <=1 
C405: x11+x63 <=1 
C406: x12+x14-y12_14 <=1 
C407: x12+x15-y12_15 <=1 
C408: x12+x17 <=1 
C409: x12+x20-y12_20 <=1 
C410: x12+x21 <=1 
C411: x12+x23-y12_23 <=1 
C412: x12+x26-y12_26 <=1 
C413: x12+x27-y12_27 <=1 
C414: x12+x29 <=1 
C415: x12+x30 <=1 
C416: x12+x32-y12_32 <=1 
C417: x12+x35 <=1 
C418: x12+x38-y12_38 <=1 
C419: x12+x41 <=1 
C420: x12+x42-y12_42 <=1 
C421: x12+x43 <=1 
C422: x12+x44-y12_44 <=1 
C423: x12+x46-y12_46 <=1 
C424: x12+x47 <=1 
C425: x12+x48 <=1 
C426: x12+x51 <=1 
C427: x12+x52 <=1 
C428: x12+x53-y12_53 <=1 
C429: x12+x54 <=1 
C430: x12+x55-y12_55 <=1 
C431: x12+x57 <=1 
C432: x12+x58 <=1 
C433: x12+x62-y12_62 <=1 
C434: x12+x63 <=1 
C435: x13+x17 <=1 
C436: x13+x18 <=1 
C437: x13+x19-y13_19 <=1 
C438: x13+x20 <=1 
C439: x13+x23 <=1 
C440: x13+x26-y13_26 <=1 
C441: x13+x27-y13_27 <=1 
C442: x13+x28 <=1 
C443: x13+x29-y13_29 <=1 
C444: x13+x30 <=1 
C445: x13+x32-y13_32 <=1 
C446: x13+x34 <=1 
C447: x13+x35 <=1 
C448: x13+x36-y13_36 <=1 
C449: x13+x37-y13_37 <=1 
C450: x13+x38-y13_38 <=1 
C451: x13+x39 <=1 
C452: x13+x41-y13_41 <=1 
C453: x13+x42-y13_42 <=1 
C454: x13+x43 <=1 
C455: x13+x45-y13_45 <=1 
C456: x13+x46 <=1 
C457: x13+x47 <=1 
C458: x13+x48 <=1 
C459: x13+x49 <=1 
C460: x13+x52 <=1 
C461: x13+x53-y13_53 <=1 
C462: x13+x55-y13_55 <=1 
C463: x13+x56 <=1 
C464: x13+x57-y13_57 <=1 
C465: x13+x58 <=1 
C466: x13+x59 <=1 
C467: x13+x61 <=1 
C468: x13+x63 <=1 
C469: x14+x15 <=1 
C470: x14+x16-y14_16 <=1 
C471: x14+x17-y14_17 <=1 
C472: x14+x18 <=1 
C473: x14+x19 <=1 
C474: x14+x21-y14_21 <=1 
C475: x14+x23 <=1 
C476: x14+x24 <=1 
C477: x14+x25 <=1 
C478: x14+x26 <=1 
C479: x14+x29-y14_29 <=1 
C480: x14+x30-y14_30 <=1 
C481: x14+x31 <=1 
C482: x14+x32 <=1 
C483: x14+x36-y14_36 <=1 
C484: x14+x40 <=1 
C485: x14+x42-y14_42 <=1 
C486: x14+x44 <=1 
C487: x14+x45 <=1 
C488: x14+x46-y14_46 <=1 
C489: x14+x47 <=1 
C490: x14+x50-y14_50 <=1 
C491: x14+x53-y14_53 <=1 
C492: x14+x54 <=1 
C493: x14+x57 <=1 
C494: x14+x58-y14_58 <=1 
C495: x14+x59 <=1 
C496: x14+x60-y14_60 <=1 
C497: x14+x61-y14_61 <=1 
C498: x14+x62 <=1 
C499: x14+x63-y14_63 <=1 
C500: x15+x18-y15_18 <=1 
C501: x15+x20-y15_20 <=1 
C502: x15+x22 <=1 
C503: x15+x24 <=1 
C504: x15+x25 <=1 
C505: x15+x27 <=1 
C506: x15+x28-y15_28 <=1 
C507: x15+x30 <=1 
C508: x15+x31 <=1 
C509: x15+x33-y15_33 <=1 
C510: x15+x34-y15_34 <=1 
C511: x15+x38 <=1 
C512: x15+x39-y15_39 <=1 
C513: x15+x40 <=1 
C514: x15+x43-y15_43 <=1 
C515: x15+x45-y15_45 <=1 
C516: x15+x46 <=1 
C517: x15+x47-y15_47 <=1 
C518: x15+x48 <=1 
C519: x15+x50 <=1 
C520: x15+x51-y15_51 <=1 
C521: x15+x52 <=1 
C522: x15+x53-y15_53 <=1 
C523: x15+x55 <=1 
C524: x15+x56-y15_56 <=1 
C525: x15+x58 <=1 
C526: x15+x59-y15_59 <=1 
C527: x15+x60-y15_60 <=1 
C528: x16+x17 <=1 
C529: x16+x19-y16_19 <=1 
C530: x16+x21-y16_21 <=1 
C531: x16+x22 <=1 
C532: x16+x25 <=1 
C533: x16+x26-y16_26 <=1 
C534: x16+x28 <=1 
C535: x16+x29 <=1 
C536: x16+x30-y16_30 <=1 
C537: x16+x32 <=1 
C538: x16+x33-y16_33 <=1 
C539: x16+x34-y16_34 <=1 
C540: x16+x39-y16_39 <=1 
C541: x16+x41 <=1 
C542: x16+x42 <=1 
C543: x16+x43-y16_43 <=1 
C544: x16+x44-y16_44 <=1 
C545: x16+x46-y16_46 <=1 
C546: x16+x48 <=1 
C547: x16+x49 <=1 
C548: x16+x50 <=1 
C549: x16+x52 <=1 
C550: x16+x54-y16_54 <=1 
C551: x16+x55 <=1 
C552: x16+x57 <=1 
C553: x16+x58 <=1 
C554: x16+x61 <=1 
C555: x16+x62 <=1 
C556: x17+x18-y17_18 <=1 
C557: x17+x21 <=1 
C558: x17+x23 <=1 
C559: x17+x24 <=1 
C560: x17+x25 <=1 
C561: x17+x26-y17_26 <=1 
C562: x17+x28 <=1 
C563: x17+x29 <=1 
C564: x17+x30-y17_30 <=1 
C565: x17+x33-y17_33 <=1 
C566: x17+x34-y17_34 <=1 
C567: x17+x35-y17_35 <=1 
C568: x17+x36 <=1 
C569: x17+x40 <=1 
C570: x17+x41 <=1 
C571: x17+x42 <=1 
C572: x17+x43 <=1 
C573: x17+x44 <=1 
C574: x17+x45 <=1 
C575: x17+x46-y17_46 <=1 
C576: x17+x47-y17_47 <=1 
C577: x17+x48 <=1 
C578: x17+x50 <=1 
C579: x17+x51-y17_51 <=1 
C580: x17+x52-y17_52 <=1 
C581: x17+x53 <=1 
C582: x17+x54 <=1 
C583: x17+x55 <=1 
C584: x17+x56 <=1 
C585: x17+x58 <=1 
C586: x17+x59-y17_59 <=1 
C587: x17+x60 <=1 
C588: x17+x63 <=1 
C589: x18+x21 <=1 
C590: x18+x22 <=1 
C591: x18+x26 <=1 
C592: x18+x27-y18_27 <=1 
C593: x18+x28 <=1 
C594: x18+x29-y18_29 <=1 
C595: x18+x32-y18_32 <=1 
C596: x18+x35-y18_35 <=1 
C597: x18+x37-y18_37 <=1 
C598: x18+x38-y18_38 <=1 
C599: x18+x42-y18_42 <=1 
C600: x18+x43-y18_43 <=1 
C601: x18+x44 <=1 
C602: x18+x46-y18_46 <=1 
C603: x18+x50-y18_50 <=1 
C604: x18+x52-y18_52 <=1 
C605: x18+x53-y18_53 <=1 
C606: x18+x54 <=1 
C607: x18+x55-y18_55 <=1 
C608: x18+x57-y18_57 <=1 
C609: x18+x58 <=1 
C610: x18+x60 <=1 
C611: x18+x61-y18_61 <=1 
C612: x18+x62 <=1 
C613: x18+x63-y18_63 <=1 
C614: x19+x20-y19_20 <=1 
C615: x19+x23-y19_23 <=1 
C616: x19+x26 <=1 
C617: x19+x27 <=1 
C618: x19+x28 <=1 
C619: x19+x32 <=1 
C620: x19+x33 <=1 
C621: x19+x34 <=1 
C622: x19+x36-y19_36 <=1 
C623: x19+x38 <=1 
C624: x19+x41-y19_41 <=1 
C625: x19+x42 <=1 
C626: x19+x43 <=1 
C627: x19+x45 <=1 
C628: x19+x46 <=1 
C629: x19+x47-y19_47 <=1 
C630: x19+x49-y19_49 <=1 
C631: x19+x50-y19_50 <=1 
C632: x19+x51 <=1 
C633: x19+x52-y19_52 <=1 
C634: x19+x53-y19_53 <=1 
C635: x19+x54 <=1 
C636: x19+x55-y19_55 <=1 
C637: x19+x60-y19_60 <=1 
C638: x19+x61 <=1 
C639: x19+x62 <=1 
C640: x19+x63-y19_63 <=1 
C641: x20+x21-y20_21 <=1 
C642: x20+x22 <=1 
C643: x20+x24 <=1 
C644: x20+x25-y20_25 <=1 
C645: x20+x26 <=1 
C646: x20+x27 <=1 
C647: x20+x28-y20_28 <=1 
C648: x20+x29-y20_29 <=1 
C649: x20+x30 <=1 
C650: x20+x35 <=1 
C651: x20+x36 <=1 
C652: x20+x37 <=1 
C653: x20+x39-y20_39 <=1 
C654: x20+x41 <=1 
C655: x20+x43 <=1 
C656: x20+x44-y20_44 <=1 
C657: x20+x45 <=1 
C658: x20+x46-y20_46 <=1 
C659: x20+x47-y20_47 <=1 
C660: x20+x51 <=1 
C661: x20+x53 <=1 
C662: x20+x55 <=1 
C663: x20+x56 <=1 
C664: x20+x57 <=1 
C665: x20+x58 <=1 
C666: x20+x59-y20_59 <=1 
C667: x20+x61-y20_61 <=1 
C668: x20+x63 <=1 
C669: x21+x22 <=1 
C670: x21+x23-y21_23 <=1 
C671: x21+x25-y21_25 <=1 
C672: x21+x27-y21_27 <=1 
C673: x21+x28-y21_28 <=1 
C674: x21+x29-y21_29 <=1 
C675: x21+x31-y21_31 <=1 
C676: x21+x32 <=1 
C677: x21+x34-y21_34 <=1 
C678: x21+x37 <=1 
C679: x21+x38 <=1 
C680: x21+x45 <=1 
C681: x21+x46-y21_46 <=1 
C682: x21+x48 <=1 
C683: x21+x50-y21_50 <=1 
C684: x21+x51 <=1 
C685: x21+x53 <=1 
C686: x21+x57 <=1 
C687: x21+x62-y21_62 <=1 
C688: x21+x63 <=1 
C689: x22+x24-y22_24 <=1 
C690: x22+x26-y22_26 <=1 
C691: x22+x27-y22_27 <=1 
C692: x22+x31 <=1 
C693: x22+x32 <=1 
C694: x22+x33 <=1 
C695: x22+x34 <=1 
C696: x22+x35-y22_35 <=1 
C697: x22+x36-y22_36 <=1 
C698: x22+x37-y22_37 <=1 
C699: x22+x38-y22_38 <=1 
C700: x22+x42-y22_42 <=1 
C701: x22+x43-y22_43 <=1 
C702: x22+x44-y22_44 <=1 
C703: x22+x45-y22_45 <=1 
C704: x22+x46 <=1 
C705: x22+x47-y22_47 <=1 
C706: x22+x48 <=1 
C707: x22+x49-y22_49 <=1 
C708: x22+x51-y22_51 <=1 
C709: x22+x52-y22_52 <=1 
C710: x22+x54 <=1 
C711: x22+x55-y22_55 <=1 
C712: x22+x56-y22_56 <=1 
C713: x22+x58 <=1 
C714: x22+x59 <=1 
C715: x22+x60 <=1 
C716: x22+x61-y22_61 <=1 
C717: x23+x26 <=1 
C718: x23+x28-y23_28 <=1 
C719: x23+x30 <=1 
C720: x23+x32 <=1 
C721: x23+x35 <=1 
C722: x23+x36-y23_36 <=1 
C723: x23+x42-y23_42 <=1 
C724: x23+x43-y23_43 <=1 
C725: x23+x46 <=1 
C726: x23+x49 <=1 
C727: x23+x50 <=1 
C728: x23+x52-y23_52 <=1 
C729: x23+x54 <=1 
C730: x23+x55 <=1 
C731: x23+x56-y23_56 <=1 
C732: x23+x58-y23_58 <=1 
C733: x23+x63-y23_63 <=1 
C734: x24+x25-y24_25 <=1 
C735: x24+x26 <=1 
C736: x24+x27 <=1 
C737: x24+x28 <=1 
C738: x24+x30-y24_30 <=1 
C739: x24+x31 <=1 
C740: x24+x33 <=1 
C741: x24+x34 <=1 
C742: x24+x36 <=1 
C743: x24+x37-y24_37 <=1 
C744: x24+x38-y24_38 <=1 
C745: x24+x40 <=1 
C746: x24+x41-y24_41 <=1 
C747: x24+x42 <=1 
C748: x24+x45-y24_45 <=1 
C749: x24+x46-y24_46 <=1 
C750: x24+x51-y24_51 <=1 
C751: x24+x52-y24_52 <=1 
C752: x24+x53-y24_53 <=1 
C753: x24+x54 <=1 
C754: x24+x56 <=1 
C755: x24+x57 <=1 
C756: x24+x58-y24_58 <=1 
C757: x24+x60-y24_60 <=1 
C758: x24+x61 <=1 
C759: x24+x63-y24_63 <=1 
C760: x25+x26 <=1 
C761: x25+x29 <=1 
C762: x25+x31-y25_31 <=1 
C763: x25+x33-y25_33 <=1 
C764: x25+x35-y25_35 <=1 
C765: x25+x36-y25_36 <=1 
C766: x25+x39 <=1 
C767: x25+x40-y25_40 <=1 
C768: x25+x42 <=1 
C769: x25+x43-y25_43 <=1 
C770: x25+x45-y25_45 <=1 
C771: x25+x46 <=1 
C772: x25+x47 <=1 
C773: x25+x51-y25_51 <=1 
C774: x25+x54-y25_54 <=1 
C775: x25+x55 <=1 
C776: x25+x56-y25_56 <=1 
C777: x25+x59-y25_59 <=1 
C778: x25+x60 <=1 
C779: x26+x29 <=1 
C780: x26+x30-y26_30 <=1 
C781: x26+x31-y26_31 <=1 
C782: x26+x32 <=1 
C783: x26+x33-y26_33 <=1 
C784: x26+x35 <=1 
C785: x26+x36 <=1 
C786: x26+x38-y26_38 <=1 
C787: x26+x39 <=1 
C788: x26+x41 <=1 
C789: x26+x42 <=1 
C790: x26+x43 <=1 
C791: x26+x44 <=1 
C792: x26+x45 <=1 
C793: x26+x46-y26_46 <=1 
C794: x26+x50-y26_50 <=1 
C795: x26+x55 <=1 
C796: x26+x57-y26_57 <=1 
C797: x26+x58 <=1 
C798: x26+x61-y26_61 <=1 
C799: x26+x63 <=1 
C800: x27+x28-y27_28 <=1 
C801: x27+x29-y27_29 <=1 
C802: x27+x32-y27_32 <=1 
C803: x27+x33-y27_33 <=1 
C804: x27+x34 <=1 
C805: x27+x38-y27_38 <=1 
C806: x27+x41 <=1 
C807: x27+x43-y27_43 <=1 
C808: x27+x44-y27_44 <=1 
C809: x27+x45-y27_45 <=1 
C810: x27+x47 <=1 
C811: x27+x49 <=1 
C812: x27+x52 <=1 
C813: x27+x55-y27_55 <=1 
C814: x27+x56 <=1 
C815: x27+x57-y27_57 <=1 
C816: x27+x58-y27_58 <=1 
C817: x27+x59 <=1 
C818: x27+x61 <=1 
C819: x27+x63-y27_63 <=1 
C820: x28+x29 <=1 
C821: x28+x30 <=1 
C822: x28+x32 <=1 
C823: x28+x33 <=1 
C824: x28+x34 <=1 
C825: x28+x35-y28_35 <=1 
C826: x28+x36 <=1 
C827: x28+x40-y28_40 <=1 
C828: x28+x41 <=1 
C829: x28+x42-y28_42 <=1 
C830: x28+x43-y28_43 <=1 
C831: x28+x46-y28_46 <=1 
C832: x28+x47 <=1 
C833: x28+x49 <=1 
C834: x28+x52 <=1 
C835: x28+x53-y28_53 <=1 
C836: x28+x54 <=1 
C837: x28+x56-y28_56 <=1 
C838: x28+x57-y28_57 <=1 
C839: x28+x61 <=1 
C840: x28+x62 <=1 
C841: x28+x63-y28_63 <=1 
C842: x29+x30-y29_30 <=1 
C843: x29+x31 <=1 
C844: x29+x33 <=1 
C845: x29+x34 <=1 
C846: x29+x35 <=1 
C847: x29+x37 <=1 
C848: x29+x38 <=1 
C849: x29+x39 <=1 
C850: x29+x41-y29_41 <=1 
C851: x29+x42 <=1 
C852: x29+x43 <=1 
C853: x29+x45 <=1 
C854: x29+x46-y29_46 <=1 
C855: x29+x48-y29_48 <=1 
C856: x29+x49-y29_49 <=1 
C857: x29+x50-y29_50 <=1 
C858: x29+x53-y29_53 <=1 
C859: x29+x54-y29_54 <=1 
C860: x29+x55-y29_55 <=1 
C861: x29+x57-y29_57 <=1 
C862: x29+x61 <=1 
C863: x29+x62 <=1 
C864: x30+x31-y30_31 <=1 
C865: x30+x32-y30_32 <=1 
C866: x30+x33 <=1 
C867: x30+x36 <=1 
C868: x30+x37 <=1 
C869: x30+x40 <=1 
C870: x30+x41 <=1 
C871: x30+x42 <=1 
C872: x30+x44-y30_44 <=1 
C873: x30+x48 <=1 
C874: x30+x49-y30_49 <=1 
C875: x30+x50-y30_50 <=1 
C876: x30+x51 <=1 
C877: x30+x52 <=1 
C878: x30+x53-y30_53 <=1 
C879: x30+x54 <=1 
C880: x30+x57-y30_57 <=1 
C881: x30+x58 <=1 
C882: x30+x59 <=1 
C883: x30+x61 <=1 
C884: x30+x62 <=1 
C885: x31+x32 <=1 
C886: x31+x33-y31_33 <=1 
C887: x31+x35 <=1 
C888: x31+x36 <=1 
C889: x31+x40-y31_40 <=1 
C890: x31+x41-y31_41 <=1 
C891: x31+x42 <=1 
C892: x31+x46 <=1 
C893: x31+x47 <=1 
C894: x31+x48 <=1 
C895: x31+x52 <=1 
C896: x31+x53-y31_53 <=1 
C897: x31+x54 <=1 
C898: x31+x56-y31_56 <=1 
C899: x31+x58 <=1 
C900: x31+x60-y31_60 <=1 
C901: x31+x61 <=1 
C902: x31+x62-y31_62 <=1 
C903: x31+x63-y31_63 <=1 
C904: x32+x33-y32_33 <=1 
C905: x32+x34 <=1 
C906: x32+x35 <=1 
C907: x32+x36-y32_36 <=1 
C908: x32+x37-y32_37 <=1 
C909: x32+x39-y32_39 <=1 
C910: x32+x40 <=1 
C911: x32+x42-y32_42 <=1 
C912: x32+x43 <=1 
C913: x32+x47 <=1 
C914: x32+x48 <=1 
C915: x32+x50 <=1 
C916: x32+x52-y32_52 <=1 
C917: x32+x53-y32_53 <=1 
C918: x32+x56-y32_56 <=1 
C919: x32+x57-y32_57 <=1 
C920: x32+x59 <=1 
C921: x32+x63-y32_63 <=1 
C922: x33+x34 <=1 
C923: x33+x35-y33_35 <=1 
C924: x33+x36 <=1 
C925: x33+x37-y33_37 <=1 
C926: x33+x38-y33_38 <=1 
C927: x33+x39 <=1 
C928: x33+x40-y33_40 <=1 
C929: x33+x43-y33_43 <=1 
C930: x33+x44 <=1 
C931: x33+x47-y33_47 <=1 
C932: x33+x48-y33_48 <=1 
C933: x33+x49-y33_49 <=1 
C934: x33+x51 <=1 
C935: x33+x52-y33_52 <=1 
C936: x33+x53 <=1 
C937: x33+x57-y33_57 <=1 
C938: x33+x60-y33_60 <=1 
C939: x33+x61 <=1 
C940: x33+x62-y33_62 <=1 
C941: x34+x35 <=1 
C942: x34+x38-y34_38 <=1 
C943: x34+x39 <=1 
C944: x34+x40 <=1 
C945: x34+x41 <=1 
C946: x34+x42-y34_42 <=1 
C947: x34+x43 <=1 
C948: x34+x45-y34_45 <=1 
C949: x34+x46 <=1 
C950: x34+x47 <=1 
C951: x34+x48 <=1 
C952: x34+x49-y34_49 <=1 
C953: x34+x50 <=1 
C954: x34+x51 <=1 
C955: x34+x53-y34_53 <=1 
C956: x34+x55 <=1 
C957: x34+x56 <=1 
C958: x34+x57-y34_57 <=1 
C959: x34+x58-y34_58 <=1 
C960: x34+x59-y34_59 <=1 
C961: x34+x60 <=1 
C962: x34+x62 <=1 
C963: x34+x63-y34_63 <=1 
C964: x35+x36 <=1 
C965: x35+x37 <=1 
C966: x35+x38 <=1 
C967: x35+x39 <=1 
C968: x35+x41-y35_41 <=1 
C969: x35+x43-y35_43 <=1 
C970: x35+x46 <=1 
C971: x35+x47-y35_47 <=1 
C972: x35+x49 <=1 
C973: x35+x50 <=1 
C974: x35+x52 <=1 
C975: x35+x53-y35_53 <=1 
C976: x35+x55-y35_55 <=1 
C977: x35+x58 <=1 
C978: x35+x59-y35_59 <=1 
C979: x35+x60 <=1 
C980: x35+x62 <=1 
C981: x35+x63-y35_63 <=1 
C982: x36+x37-y36_37 <=1 
C983: x36+x38 <=1 
C984: x36+x39-y36_39 <=1 
C985: x36+x40 <=1 
C986: x36+x41 <=1 
C987: x36+x42 <=1 
C988: x36+x43-y36_43 <=1 
C989: x36+x45-y36_45 <=1 
C990: x36+x46-y36_46 <=1 
C991: x36+x51-y36_51 <=1 
C992: x36+x56-y36_56 <=1 
C993: x36+x58-y36_58 <=1 
C994: x36+x60-y36_60 <=1 
C995: x36+x61 <=1 
C996: x36+x62 <=1 
C997: x37+x39 <=1 
C998: x37+x40-y37_40 <=1 
C999: x37+x41 <=1 
C1000: x37+x43-y37_43 <=1 
C1001: x37+x45-y37_45 <=1 
C1002: x37+x46-y37_46 <=1 
C1003: x37+x48-y37_48 <=1 
C1004: x37+x50-y37_50 <=1 
C1005: x37+x52 <=1 
C1006: x37+x54-y37_54 <=1 
C1007: x37+x55 <=1 
C1008: x37+x56 <=1 
C1009: x37+x57 <=1 
C1010: x37+x58-y37_58 <=1 
C1011: x37+x60-y37_60 <=1 
C1012: x37+x63-y37_63 <=1 
C1013: x38+x39 <=1 
C1014: x38+x40-y38_40 <=1 
C1015: x38+x41-y38_41 <=1 
C1016: x38+x43-y38_43 <=1 
C1017: x38+x45-y38_45 <=1 
C1018: x38+x47 <=1 
C1019: x38+x49-y38_49 <=1 
C1020: x38+x51 <=1 
C1021: x38+x54 <=1 
C1022: x38+x55-y38_55 <=1 
C1023: x38+x57 <=1 
C1024: x38+x58-y38_58 <=1 
C1025: x38+x60 <=1 
C1026: x38+x61 <=1 
C1027: x39+x40 <=1 
C1028: x39+x41 <=1 
C1029: x39+x42-y39_42 <=1 
C1030: x39+x43 <=1 
C1031: x39+x46 <=1 
C1032: x39+x47-y39_47 <=1 
C1033: x39+x49-y39_49 <=1 
C1034: x39+x50-y39_50 <=1 
C1035: x39+x52-y39_52 <=1 
C1036: x39+x53-y39_53 <=1 
C1037: x39+x54 <=1 
C1038: x39+x56 <=1 
C1039: x39+x58 <=1 
C1040: x39+x61-y39_61 <=1 
C1041: x39+x62-y39_62 <=1 
C1042: x40+x45 <=1 
C1043: x40+x46-y40_46 <=1 
C1044: x40+x47-y40_47 <=1 
C1045: x40+x48-y40_48 <=1 
C1046: x40+x49-y40_49 <=1 
C1047: x40+x50-y40_50 <=1 
C1048: x40+x55 <=1 
C1049: x40+x56 <=1 
C1050: x40+x57-y40_57 <=1 
C1051: x40+x58-y40_58 <=1 
C1052: x40+x59-y40_59 <=1 
C1053: x40+x60-y40_60 <=1 
C1054: x40+x61 <=1 
C1055: x41+x42-y41_42 <=1 
C1056: x41+x44 <=1 
C1057: x41+x46 <=1 
C1058: x41+x48-y41_48 <=1 
C1059: x41+x50-y41_50 <=1 
C1060: x41+x52-y41_52 <=1 
C1061: x41+x53-y41_53 <=1 
C1062: x41+x55 <=1 
C1063: x41+x57-y41_57 <=1 
C1064: x41+x58-y41_58 <=1 
C1065: x41+x59 <=1 
C1066: x41+x60 <=1 
C1067: x41+x61 <=1 
C1068: x41+x62-y41_62 <=1 
C1069: x41+x63 <=1 
C1070: x42+x43 <=1 
C1071: x42+x44 <=1 
C1072: x42+x45 <=1 
C1073: x42+x48 <=1 
C1074: x42+x50-y42_50 <=1 
C1075: x42+x51 <=1 
C1076: x42+x52 <=1 
C1077: x42+x53-y42_53 <=1 
C1078: x42+x54 <=1 
C1079: x42+x55-y42_55 <=1 
C1080: x42+x58-y42_58 <=1 
C1081: x42+x61-y42_61 <=1 
C1082: x43+x44-y43_44 <=1 
C1083: x43+x45 <=1 
C1084: x43+x46-y43_46 <=1 
C1085: x43+x47 <=1 
C1086: x43+x51 <=1 
C1087: x43+x53-y43_53 <=1 
C1088: x43+x56 <=1 
C1089: x43+x58 <=1 
C1090: x43+x59-y43_59 <=1 
C1091: x43+x60-y43_60 <=1 
C1092: x43+x63-y43_63 <=1 
C1093: x44+x45-y44_45 <=1 
C1094: x44+x47-y44_47 <=1 
C1095: x44+x49-y44_49 <=1 
C1096: x44+x50-y44_50 <=1 
C1097: x44+x51-y44_51 <=1 
C1098: x44+x57-y44_57 <=1 
C1099: x44+x58 <=1 
C1100: x44+x59 <=1 
C1101: x44+x60 <=1 
C1102: x44+x61 <=1 
C1103: x44+x62 <=1 
C1104: x45+x46-y45_46 <=1 
C1105: x45+x48 <=1 
C1106: x45+x50-y45_50 <=1 
C1107: x45+x53-y45_53 <=1 
C1108: x45+x54-y45_54 <=1 
C1109: x45+x55 <=1 
C1110: x45+x57 <=1 
C1111: x45+x58 <=1 
C1112: x45+x60 <=1 
C1113: x45+x61 <=1 
C1114: x45+x63-y45_63 <=1 
C1115: x46+x47 <=1 
C1116: x46+x48 <=1 
C1117: x46+x49-y46_49 <=1 
C1118: x46+x51 <=1 
C1119: x46+x54 <=1 
C1120: x46+x56 <=1 
C1121: x46+x60-y46_60 <=1 
C1122: x46+x61 <=1 
C1123: x46+x62 <=1 
C1124: x46+x63-y46_63 <=1 
C1125: x47+x50 <=1 
C1126: x47+x51 <=1 
C1127: x47+x53-y47_53 <=1 
C1128: x47+x54 <=1 
C1129: x47+x56 <=1 
C1130: x47+x58-y47_58 <=1 
C1131: x47+x59-y47_59 <=1 
C1132: x47+x60-y47_60 <=1 
C1133: x47+x61-y47_61 <=1 
C1134: x47+x62 <=1 
C1135: x48+x50 <=1 
C1136: x48+x51-y48_51 <=1 
C1137: x48+x53-y48_53 <=1 
C1138: x48+x54-y48_54 <=1 
C1139: x48+x55 <=1 
C1140: x48+x56-y48_56 <=1 
C1141: x48+x57 <=1 
C1142: x48+x58 <=1 
C1143: x48+x59-y48_59 <=1 
C1144: x48+x60-y48_60 <=1 
C1145: x48+x61 <=1 
C1146: x48+x62-y48_62 <=1 
C1147: x48+x63 <=1 
C1148: x49+x51 <=1 
C1149: x49+x52 <=1 
C1150: x49+x54 <=1 
C1151: x49+x57 <=1 
C1152: x49+x58-y49_58 <=1 
C1153: x49+x59-y49_59 <=1 
C1154: x49+x62 <=1 
C1155: x49+x63-y49_63 <=1 
C1156: x50+x53 <=1 
C1157: x50+x54-y50_54 <=1 
C1158: x50+x55-y50_55 <=1 
C1159: x50+x58-y50_58 <=1 
C1160: x50+x59 <=1 
C1161: x50+x60-y50_60 <=1 
C1162: x50+x61-y50_61 <=1 
C1163: x50+x62-y50_62 <=1 
C1164: x51+x52 <=1 
C1165: x51+x53 <=1 
C1166: x51+x54 <=1 
C1167: x51+x57-y51_57 <=1 
C1168: x51+x58-y51_58 <=1 
C1169: x51+x59-y51_59 <=1 
C1170: x51+x60-y51_60 <=1 
C1171: x51+x61-y51_61 <=1 
C1172: x51+x62 <=1 
C1173: x52+x53-y52_53 <=1 
C1174: x52+x54 <=1 
C1175: x52+x57 <=1 
C1176: x52+x61 <=1 
C1177: x52+x62-y52_62 <=1 
C1178: x52+x63-y52_63 <=1 
C1179: x53+x55-y53_55 <=1 
C1180: x53+x58 <=1 
C1181: x54+x55 <=1 
C1182: x54+x56-y54_56 <=1 
C1183: x54+x57 <=1 
C1184: x54+x58-y54_58 <=1 
C1185: x54+x60 <=1 
C1186: x54+x61-y54_61 <=1 
C1187: x55+x56 <=1 
C1188: x55+x57 <=1 
C1189: x55+x60-y55_60 <=1 
C1190: x55+x61 <=1 
C1191: x55+x63 <=1 
C1192: x56+x57 <=1 
C1193: x56+x58-y56_58 <=1 
C1194: x57+x58-y57_58 <=1 
C1195: x57+x59-y57_59 <=1 
C1196: x57+x60-y57_60 <=1 
C1197: x57+x62 <=1 
C1198: x58+x60 <=1 
C1199: x58+x62 <=1 
C1200: x59+x60-y59_60 <=1 
C1201: x59+x61-y59_61 <=1 
C1202: x59+x62-y59_62 <=1 
C1203: x59+x63-y59_63 <=1 
C1204: x60+x62-y60_62 <=1 
C1205: x60+x63 <=1 
C1206: x61+x63 <=1 

binary
x0
x1
x2
x3
x4
x5
x6
x7
x8
x9
x10
x11
x12
x13
x14
x15
x16
x17
x18
x19
x20
x21
x22
x23
x24
x25
x26
x27
x28
x29
x30
x31
x32
x33
x34
x35
x36
x37
x38
x39
x40
x41
x42
x43
x44
x45
x46
x47
x48
x49
x50
x51
x52
x53
x54
x55
x56
x57
x58
x59
x60
x61
x62
x63
