problem_generation/data/GISP/train/er_n=64_m=1206_p=0.60_SET2_setparam=100.00_alpha=0.50_412.sol
objective value:                                 1179
x2                                                  1 	(obj:100)
x5                                                  1 	(obj:100)
x6                                                  1 	(obj:100)
x7                                                  1 	(obj:100)
x23                                                 1 	(obj:100)
x25                                                 1 	(obj:100)
x31                                                 1 	(obj:100)
x33                                                 1 	(obj:100)
x38                                                 1 	(obj:100)
x41                                                 1 	(obj:100)
x56                                                 1 	(obj:100)
x62                                                 1 	(obj:100)
y33_38                                              1 	(obj:-1)
y6_56                                               1 	(obj:-1)
y25_33                                              1 	(obj:-1)
y31_62                                              1 	(obj:-1)
y31_56                                              1 	(obj:-1)
y31_33                                              1 	(obj:-1)
y23_56                                              1 	(obj:-1)
y38_41                                              1 	(obj:-1)
y7_62                                               1 	(obj:-1)
y25_56                                              1 	(obj:-1)
y7_56                                               1 	(obj:-1)
y25_31                                              1 	(obj:-1)
y6_31                                               1 	(obj:-1)
y2_6                                                1 	(obj:-1)
y2_5                                                1 	(obj:-1)
y31_41                                              1 	(obj:-1)
y2_23                                               1 	(obj:-1)
y41_62                                              1 	(obj:-1)
y33_62                                              1 	(obj:-1)
y7_31                                               1 	(obj:-1)
y6_62                                               1 	(obj:-1)
